33D32945 STP File, STP Format Version 1.0

SECTION Comments
Name "cube_n13_d2_s12"
Problem "Euclidean Steiner Tree Problem"
Remark "Generated with STPGenerator. 2 dimensions."
END

SECTION Graph
Nodes 13
END

SECTION Coordinates
DD 0 0.7856002826 0.4401777473
DD 1 0.1151188249 0.8235438768
DD 2 0.6883942167 0.1299254853
DD 3 0.3111650372 0.5165184259
DD 4 0.6420080073 0.4910349215
DD 5 0.0853253426 0.4141814399
DD 6 0.2860070939 0.0876902482
DD 7 0.3650377357 0.4803538809
DD 8 0.6394705305 0.1302257493
DD 9 0.7771808131 0.8949633971
DD 10 0.8192397947 0.6017836037
DD 11 0.3779945804 0.8946192055
DD 12 0.1970067798 0.1855946668
END
